Traveling Salesman Problem/TSP_generados/Aleatorio1621105134_19.tsp
NAME: Aleatorio1621105134_19.tsp
COMMENT: Randomly generated scenario
TYPE: TSP
DIMENSION: 19
EDGE_WEIGHT_TYPE: ATT
NODE_COORD_SECTION
1 7.1 47.46
2 3.92 37.19
3 40.72 30.6
4 40.84 36.86
5 5.96 31.95
6 7.35 16.35
7 18.37 19.01
8 25.49 39.4
9 16.25 29.51
10 28.2 43.51
11 22.61 18.59
12 33.6 25.03
13 28.92 19.26
14 49.85 17.26
15 19.2 34.74
16 14.75 14.56
17 41.26 12.07
18 13.43 42.64
19 46.38 37.1
