Traveling Salesman Problem/TSP_generados/Aleatorio1621105134_19.opt.tour
NAME: Aleatorio1621105134_19.opt.tour
COMMENT: Optimal solution for Aleatorio1621105134_19 (173.2652810723616)
TYPE: TOUR
DIMENSION: 19
TOUR_SECTION
1 18 9 15 8 10 4 19 3 14 17 12 13 11 7 16 6 5 2
-1
EOF
